projet_m2_wvcp/reduced_wvcp_dzn/zeroin.i.1.clq.dzn
cliques=[{0,1,3,8,9,10,14,15,16,18,23,24,27,28,34,36,39,38,40,41,44,45,46,47,48,49,50,52,53,54,55,56,59,60,62,63,65,66,67,68,69,70,71,72,74,75,77,79,80},{0,1,3,8,9,10,14,15,16,18,23,24,27,28,34,36,39,38,40,41,44,45,46,47,48,49,50,52,53,54,55,56,59,60,62,63,65,66,67,68,69,70,71,72,74,75,77,79,80},{0,1,2,8,9,10,14,15,16,18,23,24,27,28,34,36,39,38,40,41,44,45,46,47,48,49,50,52,53,54,55,59,60,62,63,65,66,67,68,69,70,71,72,74,75,77,79,80},{0,1,3,8,9,10,14,15,16,18,23,24,27,28,34,36,39,38,40,41,44,45,46,47,48,49,50,52,53,54,55,56,59,60,62,63,65,66,67,68,69,70,71,72,74,75,77,79,80},{0,1,4,8,9,11,14,15,18,23,24,27,28,34,36,39,38,40,41,44,45,46,47,48,49,50,52,53,54,55,59,61,62,63,64,65,66,67,68,70,71,72,74,77,78,79,80},{0,1,5,6,8,9,14,15,18,23,24,27,28,34,36,39,38,40,41,44,45,46,47,48,49,50,52,53,54,55,59,62,63,65,66,67,68,70,71,72,74,75,77,79,80},{0,1,5,6,8,9,14,15,18,23,24,27,28,34,36,39,38,40,41,44,45,46,47,48,49,50,52,53,54,55,59,62,63,65,66,67,68,70,71,72,74,75,77,79,80},{7,12,13,20,21,22,26,30,31,32,33,35,37,42,43,51,58,73},{0,1,3,8,9,10,14,15,16,18,23,24,27,28,34,36,39,38,40,41,44,45,46,47,48,49,50,52,53,54,55,56,59,60,62,63,65,66,67,68,69,70,71,72,74,75,77,79,80},{0,1,3,9,8,10,14,15,16,18,23,24,27,28,34,36,39,38,40,41,44,45,46,47,48,49,50,52,53,54,55,56,59,60,62,63,65,66,67,68,69,70,71,72,74,75,77,79,80},{0,1,3,8,9,10,14,15,16,18,23,24,27,28,34,36,39,38,40,41,44,45,46,47,48,49,50,52,53,54,55,56,59,60,62,63,65,66,67,68,69,70,71,72,74,75,77,79,80},{0,1,4,8,9,11,14,15,18,23,24,27,28,34,36,39,38,40,41,44,45,46,47,48,49,50,52,53,54,55,59,61,62,63,64,65,66,67,68,70,71,72,74,77,78,79,80},{0,8,9,12,15,19,27,28,29,30,34,35,39,40,44,48,49,50,51,52,53,54,58,59,65,67,71,73,77,79},{7,12,13,20,21,22,26,30,31,32,33,35,37,42,43,51,58,73},{0,1,3,8,9,10,14,15,16,18,23,24,27,28,34,36,38,39,40,41,44,45,46,47,48,49,50,52,53,54,55,56,59,60,62,63,65,66,67,68,69,70,71,72,74,75,77,79,80},{0,1,3,8,9,10,14,15,16,18,23,24,27,28,34,36,39,38,40,41,44,45,46,47,48,49,50,52,53,54,55,56,59,60,62,63,65,66,67,68,69,70,71,72,74,75,77,79,80},{0,1,3,8,9,10,14,15,16,18,23,24,27,28,34,36,39,38,40,41,44,45,46,47,48,49,50,52,53,54,55,56,59,60,62,63,65,66,67,68,69,70,71,72,74,75,77,79,80},{0,1,8,9,14,15,17,18,19,23,24,27,28,29,34,36,39,38,40,41,44,45,46,47,48,49,50,52,53,54,55,59,62,63,65,66,67,68,70,71,72,74,77,79,80},{0,1,3,8,9,10,14,15,16,18,23,24,27,28,34,36,38,39,40,41,44,45,46,47,48,49,50,52,53,54,55,56,59,60,62,63,65,66,67,68,69,70,71,72,74,75,77,79,80},{0,1,8,9,14,15,17,18,19,23,24,27,28,29,34,36,39,38,40,41,44,45,46,47,48,49,50,52,53,54,55,59,62,63,65,66,67,68,70,71,72,74,77,79,80},{7,12,13,20,21,22,26,30,31,32,33,35,37,42,43,51,58,73},{7,12,13,20,21,22,26,30,31,32,33,35,37,42,43,51,58,73},{7,12,13,20,21,22,26,30,31,32,33,35,37,42,43,51,58,73},{0,1,3,8,9,10,14,15,16,18,23,24,27,28,34,36,38,39,40,41,44,45,46,47,48,49,50,52,53,54,55,56,59,60,62,63,65,66,67,68,69,70,71,72,74,75,77,79,80},{0,1,3,8,9,10,14,15,16,18,23,24,27,28,34,36,38,39,40,41,44,45,46,47,48,49,50,52,53,54,55,56,59,60,62,63,65,66,67,68,69,70,71,72,74,75,77,79,80},{0,1,2,8,9,10,14,15,18,23,24,25,27,28,34,36,39,38,40,41,44,45,46,47,48,49,50,52,53,54,55,59,60,62,63,65,66,67,68,69,70,71,72,74,75,77,79,80},{7,12,13,20,21,22,26,30,31,32,33,35,37,42,43,51,58,73},{0,1,3,8,9,10,14,15,16,18,23,24,27,28,34,36,39,38,40,41,44,45,46,47,48,49,50,52,53,54,55,56,59,60,62,63,65,66,67,68,69,70,71,72,74,75,77,79,80},{0,1,3,8,9,10,14,15,16,18,23,24,28,27,34,36,39,38,40,41,44,45,46,47,48,49,50,52,53,54,55,56,59,60,62,63,65,66,67,68,69,70,71,72,74,75,77,79,80},{0,1,8,9,14,15,17,18,19,23,24,27,28,29,34,36,39,38,40,41,44,45,46,47,48,49,50,52,53,54,55,59,62,63,65,66,67,68,70,71,72,74,77,79,80},{0,8,9,12,15,19,27,28,29,30,34,35,39,40,44,48,49,50,51,52,53,54,58,59,65,67,71,73,77,79},{7,12,13,20,21,22,26,30,31,32,33,35,37,42,43,51,58,73},{7,12,13,20,21,22,26,30,31,32,33,35,37,42,43,51,58,73},{7,12,13,20,21,22,26,30,31,32,33,35,37,42,43,51,58,73},{0,1,3,8,9,10,14,15,16,18,23,24,27,28,34,36,39,38,40,41,44,45,46,47,48,49,50,52,53,54,55,56,59,60,62,63,65,66,67,68,69,70,71,72,74,75,77,79,80},{0,1,3,8,9,10,15,16,27,28,34,35,36,39,40,44,48,49,50,52,53,54,55,56,59,60,63,65,67,69,71,73,75,77,79},{0,1,3,8,9,10,14,15,16,18,23,24,27,28,34,36,39,38,40,41,44,45,46,47,48,49,50,52,53,54,55,56,59,60,62,63,65,66,67,68,69,70,71,72,74,75,77,79,80},{7,12,13,20,21,22,26,30,31,32,33,35,37,42,43,51,58,73},{0,1,3,8,9,10,14,15,16,18,23,24,27,28,34,36,38,39,40,41,44,45,46,47,48,49,50,52,53,54,55,56,59,60,62,63,65,66,67,68,69,70,71,72,74,75,77,79,80},{0,1,3,8,9,10,14,15,16,18,23,24,27,28,34,36,39,38,40,41,44,45,46,47,48,49,50,52,53,54,55,56,59,60,62,63,65,66,67,68,69,70,71,72,74,75,77,79,80},{0,1,3,8,9,10,14,15,16,18,23,24,27,28,34,36,39,38,40,41,44,45,46,47,48,49,50,52,53,54,55,56,59,60,62,63,65,66,67,68,69,70,71,72,74,75,77,79,80},{0,1,3,8,9,10,14,15,16,18,23,24,27,28,34,36,38,39,40,41,44,45,46,47,48,49,50,52,53,54,55,56,59,60,62,63,65,66,67,68,69,70,71,72,74,75,77,79,80},{7,12,13,20,21,22,26,30,31,32,33,35,37,42,43,51,58,73},{7,12,13,20,21,22,26,30,31,32,33,35,37,42,43,51,58,73},{0,1,3,8,9,10,14,15,16,18,23,24,27,28,34,36,39,38,40,41,44,45,46,47,48,49,50,52,53,54,55,56,59,60,62,63,65,66,67,68,69,70,71,72,74,75,77,79,80},{0,1,3,8,9,10,14,15,16,18,23,24,27,28,34,36,38,39,40,41,44,45,46,47,48,49,50,52,53,54,55,56,59,60,62,63,65,66,67,68,69,70,71,72,74,75,77,79,80},{0,1,3,8,9,10,14,15,16,18,23,24,27,28,34,36,38,39,40,41,44,46,45,47,48,49,50,52,53,54,55,56,59,60,62,63,65,66,67,68,69,70,71,72,74,75,77,79,80},{0,1,3,8,9,10,14,15,16,18,23,24,27,28,34,36,38,39,40,41,44,47,45,46,48,49,50,52,53,54,55,56,59,60,62,63,65,66,67,68,69,70,71,72,74,75,77,79,80},{0,1,3,8,9,10,14,15,16,18,23,24,27,28,34,36,39,38,40,41,44,45,46,47,48,49,50,52,53,54,55,56,59,60,62,63,65,66,67,68,69,70,71,72,74,75,77,79,80},{0,1,3,8,9,10,14,15,16,18,23,24,27,28,34,36,39,38,40,41,44,45,46,47,49,48,50,52,53,54,55,56,59,60,62,63,65,66,67,68,69,70,71,72,74,75,77,79,80},{0,1,3,8,9,10,14,15,16,18,23,24,27,28,34,36,39,38,40,41,44,45,46,47,50,48,49,52,53,54,55,56,59,60,62,63,65,66,67,68,69,70,71,72,74,75,77,79,80},{0,8,9,12,15,19,27,28,29,30,34,35,39,40,44,48,49,50,51,52,53,54,58,59,65,67,71,73,77,79},{0,1,3,8,9,10,14,15,16,18,23,24,27,28,34,36,39,38,40,41,44,45,46,47,48,49,50,52,53,54,55,56,59,60,62,63,65,66,67,68,69,70,71,72,74,75,77,79,80},{0,1,3,8,9,10,14,15,16,18,23,24,27,28,34,36,39,38,40,41,44,45,46,47,48,49,50,52,53,54,55,56,59,60,62,63,65,66,67,68,69,70,71,72,74,75,77,79,80},{0,1,3,8,9,10,14,15,16,18,23,24,27,28,34,36,39,38,40,41,44,45,46,47,48,49,50,52,54,53,55,56,59,60,62,63,65,66,67,68,69,70,71,72,74,75,77,79,80},{0,1,3,8,9,10,14,15,16,18,23,24,27,28,34,36,39,38,40,41,44,45,46,47,48,49,50,52,53,54,55,56,59,60,62,63,65,66,67,68,69,70,71,72,74,75,77,79,80},{0,1,3,8,9,10,14,15,16,18,23,24,27,28,34,36,39,38,40,41,44,45,46,47,48,49,50,52,53,54,55,56,59,60,62,63,65,66,67,68,69,70,71,72,74,75,77,79,80},{0,1,8,9,14,15,18,19,23,24,27,28,29,34,36,39,38,40,41,44,45,46,47,48,49,50,52,53,54,55,57,59,62,63,65,66,67,68,70,71,72,74,75,77,79,80},{0,8,9,12,15,19,27,28,29,30,34,35,39,40,44,48,49,50,51,52,53,54,58,59,65,67,71,73,77,79},{0,1,3,8,9,10,14,15,16,18,23,24,27,28,34,36,39,38,40,41,44,45,46,47,48,49,50,52,53,54,55,56,59,60,62,63,65,66,67,68,69,70,71,72,74,75,77,79,80},{0,1,3,8,9,10,14,15,16,18,23,24,27,28,34,36,39,38,40,41,44,45,46,47,48,49,50,52,53,54,55,56,59,60,62,63,65,66,67,68,69,70,71,72,74,75,77,79,80},{0,1,4,8,9,11,14,15,18,23,24,27,28,34,36,39,38,40,41,44,45,46,47,48,49,50,52,53,54,55,59,61,62,63,64,65,66,67,68,70,71,72,74,77,78,79,80},{0,1,3,8,9,10,14,15,16,18,23,24,27,28,34,36,38,39,40,41,44,45,46,47,48,49,50,52,53,54,55,56,59,60,62,63,65,66,67,68,69,70,71,72,74,75,77,79,80},{0,1,3,8,9,10,14,15,16,18,23,24,27,28,34,36,39,38,40,41,44,45,46,47,48,49,50,52,53,54,55,56,59,60,62,63,65,66,67,68,69,70,71,72,74,75,77,79,80},{0,1,4,8,9,11,14,15,18,23,24,27,28,34,36,39,38,40,41,44,45,46,47,48,49,50,52,53,54,55,59,61,62,63,64,65,66,67,68,70,71,72,74,77,78,79,80},{0,1,3,8,9,10,14,15,16,18,23,24,27,28,34,36,39,38,40,41,44,45,46,47,48,49,50,52,53,54,55,56,59,60,62,63,65,66,67,68,69,70,71,72,74,75,77,79,80},{0,1,3,8,9,10,14,15,16,18,23,24,27,28,34,36,38,39,40,41,44,45,46,47,48,49,50,52,53,54,55,56,59,60,62,63,65,66,67,68,69,70,71,72,74,75,77,79,80},{0,1,3,8,9,10,14,15,16,18,23,24,27,28,34,36,39,38,40,41,44,45,46,47,48,49,50,52,53,54,55,56,59,60,62,63,65,66,67,68,69,70,71,72,74,75,77,79,80},{0,1,3,8,9,10,14,15,16,18,23,24,27,28,34,36,38,39,40,41,44,45,46,47,48,49,50,52,53,54,55,56,59,60,62,63,65,66,67,68,69,70,71,72,74,75,77,79,80},{0,1,3,8,9,10,14,15,16,18,23,24,27,28,34,36,39,38,40,41,44,45,46,47,48,49,50,52,53,54,55,56,59,60,62,63,65,66,67,68,69,70,71,72,74,75,77,79,80},{0,1,3,8,9,10,14,15,16,18,23,24,27,28,34,36,38,39,40,41,44,45,46,47,48,49,50,52,53,54,55,56,59,60,62,63,65,66,67,68,69,70,71,72,74,75,77,79,80},{0,1,3,8,9,10,14,15,16,18,23,24,27,28,34,36,39,38,40,41,44,45,46,47,48,49,50,52,53,54,55,56,59,60,62,63,65,66,67,68,69,70,71,72,74,75,77,79,80},{0,1,3,8,9,10,14,15,16,18,23,24,27,28,34,36,38,39,40,41,44,45,46,47,48,49,50,52,53,54,55,56,59,60,62,63,65,66,67,68,69,70,71,72,74,75,77,79,80},{0,1,3,8,9,10,15,16,27,28,34,35,36,39,40,44,48,49,50,52,53,54,55,56,59,60,63,65,67,69,71,73,75,77,79},{0,1,3,8,9,10,14,15,16,18,23,24,27,28,34,36,38,39,40,41,44,45,46,47,48,49,50,52,53,54,55,56,59,60,62,63,65,66,67,68,69,70,71,72,74,75,77,79,80},{0,1,3,8,9,10,14,15,16,18,23,24,27,28,34,36,39,38,40,41,44,45,46,47,48,49,50,52,53,54,55,56,59,60,62,63,65,66,67,68,69,70,71,72,74,75,77,79,80},{0,1,8,9,14,15,18,23,24,25,27,28,34,36,39,38,40,41,44,45,46,47,48,49,50,52,53,54,55,59,60,62,63,65,66,67,68,69,70,71,72,74,75,76,77,79,80},{0,1,3,8,9,10,14,15,16,18,23,24,27,28,34,36,39,38,40,41,44,45,46,47,48,49,50,52,53,54,55,56,59,60,62,63,65,66,67,68,69,70,71,72,74,75,77,79,80},{0,1,4,8,9,11,14,15,18,23,24,27,28,34,36,39,38,40,41,44,45,46,47,48,49,50,52,53,54,55,59,61,62,63,64,65,66,67,68,70,71,72,74,77,78,79,80},{0,1,3,8,9,10,14,15,16,18,23,24,27,28,34,36,39,38,40,41,44,45,46,47,48,49,50,52,53,54,55,56,59,60,62,63,65,66,67,68,69,70,71,72,74,75,77,79,80},{0,1,3,8,9,10,14,15,16,18,23,24,27,28,34,36,38,39,40,41,44,45,46,47,48,49,50,52,53,54,55,56,59,60,62,63,65,66,67,68,69,70,71,72,74,75,77,79,80}];
nr_cliques=81;
