projet_m2_wvcp/reduced_wvcp_dzn/zeroin.i.1.dzn
name="zeroin.i.1";
nr_vertices=81;
nr_edges=2246;
neighborhoods=[{1,2,3,4,5,6,8,9,10,11,12,14,15,16,17,18,19,23,24,25,27,28,29,30,34,35,36,38,39,40,41,44,45,46,47,48,49,50,51,52,53,54,55,56,57,58,59,60,61,62,63,64,65,66,67,68,69,70,71,72,73,74,75,76,77,78,79,80},{0,2,3,4,5,6,8,9,10,11,14,15,16,17,18,19,23,24,25,27,28,29,34,35,36,38,39,40,41,44,45,46,47,48,49,50,52,53,54,55,56,57,59,60,61,62,63,64,65,66,67,68,69,70,71,72,73,74,75,76,77,78,79,80},{0,1,8,9,10,14,15,16,18,23,24,25,27,28,34,35,36,38,39,40,41,44,45,46,47,48,49,50,52,53,54,55,59,60,62,63,65,66,67,68,69,70,71,72,73,74,75,77,79,80},{0,1,8,9,10,14,15,16,18,23,24,27,28,34,35,36,38,39,40,41,44,45,46,47,48,49,50,52,53,54,55,56,59,60,62,63,65,66,67,68,69,70,71,72,73,74,75,77,79,80},{0,1,8,9,11,14,15,18,23,24,27,28,34,35,36,38,39,40,41,44,45,46,47,48,49,50,52,53,54,55,59,61,62,63,64,65,66,67,68,70,71,72,73,74,77,78,79,80},{0,1,6,8,9,14,15,18,23,24,27,28,34,35,36,38,39,40,41,44,45,46,47,48,49,50,52,53,54,55,59,62,63,65,66,67,68,70,71,72,73,74,75,76,77,79,80},{0,1,5,8,9,14,15,18,23,24,27,28,34,35,36,38,39,40,41,44,45,46,47,48,49,50,52,53,54,55,59,62,63,65,66,67,68,70,71,72,73,74,75,77,79,80},{12,13,20,21,22,26,30,31,32,33,35,37,39,42,43,44,51,52,58,59,67,71,73,77,79},{0,1,2,3,4,5,6,9,10,11,12,14,15,16,17,18,19,23,24,25,27,28,29,30,34,35,36,38,39,40,41,44,45,46,47,48,49,50,51,52,53,54,55,56,57,58,59,60,61,62,63,64,65,66,67,68,69,70,71,72,73,74,75,76,77,78,79,80},{0,1,2,3,4,5,6,8,10,11,12,14,15,16,17,18,19,23,24,25,27,28,29,30,34,35,36,38,39,40,41,44,45,46,47,48,49,50,51,52,53,54,55,56,57,58,59,60,61,62,63,64,65,66,67,68,69,70,71,72,73,74,75,76,77,78,79,80},{0,1,2,3,8,9,14,15,16,18,19,23,24,25,27,28,34,35,36,38,39,40,41,44,45,46,47,48,49,50,52,53,54,55,56,59,60,62,63,65,66,67,68,69,70,71,72,73,74,75,77,79,80},{0,1,4,8,9,14,15,18,23,24,27,28,34,35,36,38,39,40,41,44,45,46,47,48,49,50,52,53,54,55,59,61,62,63,64,65,66,67,68,70,71,72,73,74,75,77,78,79,80},{0,7,8,9,13,15,19,20,21,22,26,27,28,29,30,31,32,33,34,35,37,39,40,42,43,44,48,49,50,51,52,53,54,58,59,65,67,71,73,77,79},{7,12,14,20,21,22,23,26,30,31,32,33,35,37,38,42,43,45,46,47,51,58,70,72,73,80},{0,1,2,3,4,5,6,8,9,10,11,13,15,16,17,18,19,20,23,24,25,26,27,28,29,31,32,34,36,38,39,40,41,42,43,44,45,46,47,48,49,50,52,53,54,55,56,57,59,60,61,62,63,64,65,66,67,68,69,70,71,72,74,75,76,77,78,79,80},{0,1,2,3,4,5,6,8,9,10,11,12,14,16,17,18,19,23,24,25,27,28,29,30,34,35,36,38,39,40,41,44,45,46,47,48,49,50,51,52,53,54,55,56,57,58,59,60,61,62,63,64,65,66,67,68,69,70,71,72,73,74,75,76,77,78,79,80},{0,1,2,3,8,9,10,14,15,18,19,23,24,27,28,34,35,36,38,39,40,41,44,45,46,47,48,49,50,52,53,54,55,56,59,60,62,63,65,66,67,68,69,70,71,72,73,74,75,77,79,80},{0,1,8,9,14,15,18,19,23,24,27,28,29,34,35,36,38,39,40,41,44,45,46,47,48,49,50,52,53,54,55,59,62,63,65,66,67,68,70,71,72,73,74,77,79,80},{0,1,2,3,4,5,6,8,9,10,11,14,15,16,17,19,20,23,24,25,27,28,29,31,34,36,38,39,40,41,42,44,45,46,47,48,49,50,52,53,54,55,56,57,59,60,61,62,63,64,65,66,67,68,69,70,71,72,74,75,76,77,78,79,80},{0,1,8,9,10,12,14,15,16,17,18,23,24,27,28,29,30,34,35,36,38,39,40,41,44,45,46,47,48,49,50,51,52,53,54,55,57,58,59,60,62,63,65,66,67,68,70,71,72,73,74,75,77,79,80},{7,12,13,14,18,21,22,23,24,26,30,31,32,33,35,37,38,41,42,43,45,46,47,51,58,62,66,70,72,73,80},{7,12,13,20,22,26,30,31,32,33,35,37,42,43,44,51,52,58,59,67,71,73,77,79},{7,12,13,20,21,26,30,31,32,33,35,37,42,43,51,58,71,73},{0,1,2,3,4,5,6,8,9,10,11,13,14,15,16,17,18,19,20,24,25,26,27,28,29,31,32,34,36,38,39,40,41,42,43,44,45,46,47,48,49,50,52,53,54,55,56,57,59,60,61,62,63,64,65,66,67,68,69,70,71,72,74,75,76,77,78,79,80},{0,1,2,3,4,5,6,8,9,10,11,14,15,16,17,18,19,20,23,25,27,28,29,34,36,38,39,40,41,44,45,46,47,48,49,50,52,53,54,55,56,57,59,60,61,62,63,64,65,66,67,68,69,70,71,72,74,75,76,77,78,79,80},{0,1,2,8,9,10,14,15,18,23,24,27,28,34,35,36,38,39,40,41,44,45,46,47,48,49,50,52,53,54,55,59,60,62,63,65,66,67,68,69,70,71,72,73,74,75,76,77,79,80},{7,12,13,14,20,21,22,23,30,31,32,33,35,37,38,42,43,45,46,47,51,58,70,72,73,80},{0,1,2,3,4,5,6,8,9,10,11,12,14,15,16,17,18,19,23,24,25,28,29,30,34,35,36,38,39,40,41,44,45,46,47,48,49,50,51,52,53,54,55,56,57,58,59,60,61,62,63,64,65,66,67,68,69,70,71,72,73,74,75,76,77,78,79,80},{0,1,2,3,4,5,6,8,9,10,11,12,14,15,16,17,18,19,23,24,25,27,29,30,34,35,36,38,39,40,41,44,45,46,47,48,49,50,51,52,53,54,55,56,57,58,59,60,61,62,63,64,65,66,67,68,69,70,71,72,73,74,75,76,77,78,79,80},{0,1,8,9,12,14,15,17,18,19,23,24,27,28,30,34,35,36,38,39,40,41,44,45,46,47,48,49,50,51,52,53,54,55,57,58,59,62,63,65,66,67,68,70,71,72,73,74,75,77,79,80},{0,7,8,9,12,13,15,19,20,21,22,26,27,28,29,31,32,33,34,35,37,39,40,42,43,44,48,49,50,51,52,53,54,58,59,65,67,71,73,77,79},{7,12,13,14,18,20,21,22,23,26,30,32,33,35,37,38,42,43,45,46,47,51,58,62,66,70,72,73,80},{7,12,13,14,20,21,22,23,26,30,31,33,35,37,38,42,43,45,46,47,51,58,70,72,73,80},{7,12,13,20,21,22,26,30,31,32,35,37,42,43,51,58,59,71,73,79},{0,1,2,3,4,5,6,8,9,10,11,12,14,15,16,17,18,19,23,24,25,27,28,29,30,35,36,38,39,40,41,44,45,46,47,48,49,50,51,52,53,54,55,56,57,58,59,60,61,62,63,64,65,66,67,68,69,70,71,72,73,74,75,76,77,78,79,80},{0,1,2,3,4,5,6,7,8,9,10,11,12,13,15,16,17,19,20,21,22,25,26,27,28,29,30,31,32,33,34,36,37,39,40,42,43,44,48,49,50,51,52,53,54,55,56,57,58,59,60,61,63,64,65,67,69,71,73,75,76,77,78,79},{0,1,2,3,4,5,6,8,9,10,11,14,15,16,17,18,19,23,24,25,27,28,29,34,35,38,39,40,41,44,45,46,47,48,49,50,52,53,54,55,56,57,59,60,61,62,63,64,65,66,67,68,69,70,71,72,73,74,75,76,77,78,79,80},{7,12,13,20,21,22,26,30,31,32,33,35,42,43,51,58,71,73,79},{0,1,2,3,4,5,6,8,9,10,11,13,14,15,16,17,18,19,20,23,24,25,26,27,28,29,31,32,34,36,39,40,41,42,43,44,45,46,47,48,49,50,52,53,54,55,56,57,59,60,61,62,63,64,65,66,67,68,69,70,71,72,74,75,76,77,78,79,80},{0,1,2,3,4,5,6,7,8,9,10,11,12,14,15,16,17,18,19,23,24,25,27,28,29,30,34,35,36,38,40,41,44,45,46,47,48,49,50,51,52,53,54,55,56,57,58,59,60,61,62,63,64,65,66,67,68,69,70,71,72,73,74,75,76,77,78,79,80},{0,1,2,3,4,5,6,8,9,10,11,12,14,15,16,17,18,19,23,24,25,27,28,29,30,34,35,36,38,39,41,44,45,46,47,48,49,50,51,52,53,54,55,56,57,58,59,60,61,62,63,64,65,66,67,68,69,70,71,72,73,74,75,76,77,78,79,80},{0,1,2,3,4,5,6,8,9,10,11,14,15,16,17,18,19,20,23,24,25,27,28,29,34,36,38,39,40,42,44,45,46,47,48,49,50,52,53,54,55,56,57,59,60,61,62,63,64,65,66,67,68,69,70,71,72,74,75,76,77,78,79,80},{7,12,13,14,18,20,21,22,23,26,30,31,32,33,35,37,38,41,43,45,46,47,51,58,62,66,70,72,73,80},{7,12,13,14,20,21,22,23,26,30,31,32,33,35,37,38,42,45,46,47,51,58,70,72,73,80},{0,1,2,3,4,5,6,7,8,9,10,11,12,14,15,16,17,18,19,21,23,24,25,27,28,29,30,34,35,36,38,39,40,41,45,46,47,48,49,50,51,52,53,54,55,56,57,58,59,60,61,62,63,64,65,66,67,68,69,70,71,72,73,74,75,76,77,78,79,80},{0,1,2,3,4,5,6,8,9,10,11,13,14,15,16,17,18,19,20,23,24,25,26,27,28,29,31,32,34,36,38,39,40,41,42,43,44,46,47,48,49,50,52,53,54,55,56,57,59,60,61,62,63,64,65,66,67,68,69,70,71,72,74,75,76,77,78,79,80},{0,1,2,3,4,5,6,8,9,10,11,13,14,15,16,17,18,19,20,23,24,25,26,27,28,29,31,32,34,36,38,39,40,41,42,43,44,45,47,48,49,50,52,53,54,55,56,57,59,60,61,62,63,64,65,66,67,68,69,70,71,72,74,75,76,77,78,79,80},{0,1,2,3,4,5,6,8,9,10,11,13,14,15,16,17,18,19,20,23,24,25,26,27,28,29,31,32,34,36,38,39,40,41,42,43,44,45,46,48,49,50,52,53,54,55,56,57,59,60,61,62,63,64,65,66,67,68,69,70,71,72,74,75,76,77,78,79,80},{0,1,2,3,4,5,6,8,9,10,11,12,14,15,16,17,18,19,23,24,25,27,28,29,30,34,35,36,38,39,40,41,44,45,46,47,49,50,51,52,53,54,55,56,57,58,59,60,61,62,63,64,65,66,67,68,69,70,71,72,73,74,75,76,77,78,79,80},{0,1,2,3,4,5,6,8,9,10,11,12,14,15,16,17,18,19,23,24,25,27,28,29,30,34,35,36,38,39,40,41,44,45,46,47,48,50,51,52,53,54,55,56,57,58,59,60,61,62,63,64,65,66,67,68,69,70,71,72,73,74,75,76,77,78,79,80},{0,1,2,3,4,5,6,8,9,10,11,12,14,15,16,17,18,19,23,24,25,27,28,29,30,34,35,36,38,39,40,41,44,45,46,47,48,49,51,52,53,54,55,56,57,58,59,60,61,62,63,64,65,66,67,68,69,70,71,72,73,74,75,76,77,78,79,80},{0,7,8,9,12,13,15,19,20,21,22,26,27,28,29,30,31,32,33,34,35,37,39,40,42,43,44,48,49,50,52,53,54,58,59,65,67,71,73,77,79},{0,1,2,3,4,5,6,7,8,9,10,11,12,14,15,16,17,18,19,21,23,24,25,27,28,29,30,34,35,36,38,39,40,41,44,45,46,47,48,49,50,51,53,54,55,56,57,58,59,60,61,62,63,64,65,66,67,68,69,70,71,72,73,74,75,76,77,78,79,80},{0,1,2,3,4,5,6,8,9,10,11,12,14,15,16,17,18,19,23,24,25,27,28,29,30,34,35,36,38,39,40,41,44,45,46,47,48,49,50,51,52,54,55,56,57,58,59,60,61,62,63,64,65,66,67,68,69,70,71,72,73,74,75,76,77,78,79,80},{0,1,2,3,4,5,6,8,9,10,11,12,14,15,16,17,18,19,23,24,25,27,28,29,30,34,35,36,38,39,40,41,44,45,46,47,48,49,50,51,52,53,55,56,57,58,59,60,61,62,63,64,65,66,67,68,69,70,71,72,73,74,75,76,77,78,79,80},{0,1,2,3,4,5,6,8,9,10,11,14,15,16,17,18,19,23,24,25,27,28,29,34,35,36,38,39,40,41,44,45,46,47,48,49,50,52,53,54,56,57,59,60,61,62,63,64,65,66,67,68,69,70,71,72,73,74,75,76,77,78,79,80},{0,1,3,8,9,10,14,15,16,18,23,24,27,28,34,35,36,38,39,40,41,44,45,46,47,48,49,50,52,53,54,55,59,60,62,63,65,66,67,68,69,70,71,72,73,74,75,77,79,80},{0,1,8,9,14,15,18,19,23,24,27,28,29,34,35,36,38,39,40,41,44,45,46,47,48,49,50,52,53,54,55,59,62,63,65,66,67,68,70,71,72,73,74,75,77,79,80},{0,7,8,9,12,13,15,19,20,21,22,26,27,28,29,30,31,32,33,34,35,37,39,40,42,43,44,48,49,50,51,52,53,54,59,65,67,71,73,77,79},{0,1,2,3,4,5,6,7,8,9,10,11,12,14,15,16,17,18,19,21,23,24,25,27,28,29,30,33,34,35,36,38,39,40,41,44,45,46,47,48,49,50,51,52,53,54,55,56,57,58,60,61,62,63,64,65,66,67,68,69,70,71,72,73,74,75,76,77,78,79,80},{0,1,2,3,8,9,10,14,15,16,18,19,23,24,25,27,28,34,35,36,38,39,40,41,44,45,46,47,48,49,50,52,53,54,55,56,59,62,63,65,66,67,68,69,70,71,72,73,74,75,76,77,79,80},{0,1,4,8,9,11,14,15,18,23,24,27,28,34,35,36,38,39,40,41,44,45,46,47,48,49,50,52,53,54,55,59,62,63,64,65,66,67,68,70,71,72,73,74,75,76,77,78,79,80},{0,1,2,3,4,5,6,8,9,10,11,14,15,16,17,18,19,20,23,24,25,27,28,29,31,34,36,38,39,40,41,42,44,45,46,47,48,49,50,52,53,54,55,56,57,59,60,61,63,64,65,66,67,68,69,70,71,72,74,75,76,77,78,79,80},{0,1,2,3,4,5,6,8,9,10,11,14,15,16,17,18,19,23,24,25,27,28,29,34,35,36,38,39,40,41,44,45,46,47,48,49,50,52,53,54,55,56,57,59,60,61,62,64,65,66,67,68,69,70,71,72,73,74,75,76,77,78,79,80},{0,1,4,8,9,11,14,15,18,23,24,27,28,34,35,36,38,39,40,41,44,45,46,47,48,49,50,52,53,54,55,59,61,62,63,65,66,67,68,70,71,72,73,74,77,78,79,80},{0,1,2,3,4,5,6,8,9,10,11,12,14,15,16,17,18,19,23,24,25,27,28,29,30,34,35,36,38,39,40,41,44,45,46,47,48,49,50,51,52,53,54,55,56,57,58,59,60,61,62,63,64,66,67,68,69,70,71,72,73,74,75,76,77,78,79,80},{0,1,2,3,4,5,6,8,9,10,11,14,15,16,17,18,19,20,23,24,25,27,28,29,31,34,36,38,39,40,41,42,44,45,46,47,48,49,50,52,53,54,55,56,57,59,60,61,62,63,64,65,67,68,69,70,71,72,74,75,76,77,78,79,80},{0,1,2,3,4,5,6,7,8,9,10,11,12,14,15,16,17,18,19,21,23,24,25,27,28,29,30,34,35,36,38,39,40,41,44,45,46,47,48,49,50,51,52,53,54,55,56,57,58,59,60,61,62,63,64,65,66,68,69,70,71,72,73,74,75,76,77,78,79,80},{0,1,2,3,4,5,6,8,9,10,11,14,15,16,17,18,19,23,24,25,27,28,29,34,36,38,39,40,41,44,45,46,47,48,49,50,52,53,54,55,56,57,59,60,61,62,63,64,65,66,67,69,70,71,72,74,75,76,77,78,79,80},{0,1,2,3,8,9,10,14,15,16,18,23,24,25,27,28,34,35,36,38,39,40,41,44,45,46,47,48,49,50,52,53,54,55,56,59,60,62,63,65,66,67,68,70,71,72,73,74,75,76,77,79,80},{0,1,2,3,4,5,6,8,9,10,11,13,14,15,16,17,18,19,20,23,24,25,26,27,28,29,31,32,34,36,38,39,40,41,42,43,44,45,46,47,48,49,50,52,53,54,55,56,57,59,60,61,62,63,64,65,66,67,68,69,71,72,74,75,76,77,78,79,80},{0,1,2,3,4,5,6,7,8,9,10,11,12,14,15,16,17,18,19,21,22,23,24,25,27,28,29,30,33,34,35,36,37,38,39,40,41,44,45,46,47,48,49,50,51,52,53,54,55,56,57,58,59,60,61,62,63,64,65,66,67,68,69,70,72,73,74,75,76,77,78,79,80},{0,1,2,3,4,5,6,8,9,10,11,13,14,15,16,17,18,19,20,23,24,25,26,27,28,29,31,32,34,36,38,39,40,41,42,43,44,45,46,47,48,49,50,52,53,54,55,56,57,59,60,61,62,63,64,65,66,67,68,69,70,71,74,75,76,77,78,79,80},{0,1,2,3,4,5,6,7,8,9,10,11,12,13,15,16,17,19,20,21,22,25,26,27,28,29,30,31,32,33,34,35,36,37,39,40,42,43,44,48,49,50,51,52,53,54,55,56,57,58,59,60,61,63,64,65,67,69,71,75,76,77,78,79},{0,1,2,3,4,5,6,8,9,10,11,14,15,16,17,18,19,23,24,25,27,28,29,34,36,38,39,40,41,44,45,46,47,48,49,50,52,53,54,55,56,57,59,60,61,62,63,64,65,66,67,68,69,70,71,72,75,76,77,78,79,80},{0,1,2,3,5,6,8,9,10,11,14,15,16,18,19,23,24,25,27,28,29,34,35,36,38,39,40,41,44,45,46,47,48,49,50,52,53,54,55,56,57,59,60,61,62,63,65,66,67,68,69,70,71,72,73,74,76,77,78,79,80},{0,1,5,8,9,14,15,18,23,24,25,27,28,34,35,36,38,39,40,41,44,45,46,47,48,49,50,52,53,54,55,59,60,61,62,63,65,66,67,68,69,70,71,72,73,74,75,77,79,80},{0,1,2,3,4,5,6,7,8,9,10,11,12,14,15,16,17,18,19,21,23,24,25,27,28,29,30,34,35,36,38,39,40,41,44,45,46,47,48,49,50,51,52,53,54,55,56,57,58,59,60,61,62,63,64,65,66,67,68,69,70,71,72,73,74,75,76,78,79,80},{0,1,4,8,9,11,14,15,18,23,24,27,28,34,35,36,38,39,40,41,44,45,46,47,48,49,50,52,53,54,55,59,61,62,63,64,65,66,67,68,70,71,72,73,74,75,77,79,80},{0,1,2,3,4,5,6,7,8,9,10,11,12,14,15,16,17,18,19,21,23,24,25,27,28,29,30,33,34,35,36,37,38,39,40,41,44,45,46,47,48,49,50,51,52,53,54,55,56,57,58,59,60,61,62,63,64,65,66,67,68,69,70,71,72,73,74,75,76,77,78,80},{0,1,2,3,4,5,6,8,9,10,11,13,14,15,16,17,18,19,20,23,24,25,26,27,28,29,31,32,34,36,38,39,40,41,42,43,44,45,46,47,48,49,50,52,53,54,55,56,57,59,60,61,62,63,64,65,66,67,68,69,70,71,72,74,75,76,77,78,79}];
weights=[19,19,19,19,19,19,19,19,18,18,18,18,18,18,17,17,17,17,16,16,16,16,16,15,15,15,15,14,14,14,14,14,14,14,13,13,13,13,12,12,12,12,12,12,11,11,11,11,11,11,11,11,10,9,9,9,9,9,9,8,8,8,7,7,7,6,6,5,5,5,4,3,3,3,3,3,3,2,2,1,1];
